unsat
(:cnf-encoding-aux-vars        86
 :eliminated-vars              102
 :max-memory                   30.32
 :memory                       18.44
 :nlsat-conflicts              4523
 :nlsat-decisions              3181
 :nlsat-irrational-assignments 96
 :nlsat-propagations           41697
 :nlsat-stages                 3137
 :num-allocs                   648137616437.00
 :rlimit-count                 105315135
 :time                         524.82
 :total-time                   523.59)
